/*********************************************
 * OPL 12.6.0.0 Data
 * Author: Adrian Rodriguez Bazaga, Pau Rodriguez Esmerats
 * Creation Date: 09/12/2017 at 00:44:04
 *********************************************/

maxConsec=8;
maxPresence=8;
maxHours=6;
minHours=1;
hours=20;
demand= [16 24 24 20 19 17 7 5 4 2 1 1 1 1 1 1 0 0 0 0  ];
nNurses=34;
